Results/Experiment 1 Results/New Benchmark/RES_20/output_p1_0.00_p2_0.00_n_20_05.txt
solutions: 72 nodes: 130  modelTime: 118  solveTime: 25  totalTime: 145  modelSize: 7358  readTime: 2 matchingSize: 10
